100
547 125 281 431 17 499 953 429 835 961 21 14 437 960 455 798 672 46 466 644 160 133 668 301 691 278 77 375 788 349 546 774 278 867 42 451 242 171 900 167 781 472 946 886 17 952 559 727 106 719 722 965 596 40 655 666 130 809 37 588 623 947 168 219 677 484 919 160 660 214 932 368 416 511 930 841 625 319 628 881 466 149 790 989 298 53 324 193 648 504 847 197 640 585 129 496 212 23 392 377 
647 225 381 531 117 599 1053 529 935 1061 121 114 537 1060 555 898 772 146 566 744 260 233 768 401 791 378 177 475 888 449 646 874 378 967 142 551 342 271 1000 267 881 572 1046 986 117 1052 659 827 206 819 822 1065 696 140 755 766 230 909 137 688 723 1047 268 319 777 584 1019 260 760 314 1032 468 516 611 1030 941 725 419 728 981 566 249 890 1089 398 153 424 293 748 604 947 297 740 685 229 596 312 123 492 477 
24285
